8794
3000
9261
9458
5139
6160
9291
3666
5010
1631
4994
3828
1648
3331
2188
6468
5437
789
6829
9708
9068
565
6096
6090
6924
9294
3278
1911
3535
4697
8538
1609
8425
9298
3829
5481
2710
7534
3847
4026
904
3257
8448
6671
2053
1651
2821
7639
8325
7744
